Minimize

1 x_0_0 + 1 x_0_1 + 80 x_0_2 + 50 x_0_3 + 10 x_0_4 + 8 x_0_5 + 1 x_0_6 + 25 x_1_0 + 3 x_1_1 + 1 x_1_2 + 1 x_1_3 + 1 x_1_4 + 5 x_1_5 + 20 x_1_6 + 10 x_2_0 + 3 x_2_1 + 8 x_2_2 + 25 x_2_3 + 15 x_2_4 + 1 x_2_5 + 3 x_2_6


Subject To

a0: x_0_0 + x_1_0 + x_2_0 >= 1
a1: x_0_1 + x_1_1 + x_2_1 >= 3
a2: x_0_2 + x_1_2 + x_2_2 >= 2
a3: x_0_3 + x_1_3 + x_2_3 >= 6
a4: x_0_4 + x_1_4 + x_2_4 >= 4
a5: x_0_5 + x_1_5 + x_2_5 >= 8
a6: x_0_6 + x_1_6 + x_2_6 >= 2
b0: x_0_0 + x_0_1 + x_0_2 + x_0_3 + x_0_4 + x_0_5 + x_0_6 <= 6
b1: x_1_0 + x_1_1 + x_1_2 + x_1_3 + x_1_4 + x_1_5 + x_1_6 <= 12
b2: x_2_0 + x_2_1 + x_2_2 + x_2_3 + x_2_4 + x_2_5 + x_2_6 <= 8





General

 x_0_0 x_0_1 x_0_2 x_0_3 x_0_4 x_0_5 x_0_6 x_1_0 x_1_1 x_1_2 x_1_3 x_1_4 x_1_5 x_1_6 x_2_0 x_2_1 x_2_2 x_2_3 x_2_4 x_2_5 x_2_6



End
